Route #1: 1 9 22 28 39 35 41 8 1
Route #2: 1 42 47 31 55 18 32 63 53 2 1
Route #3: 1 34 19 51 62 48 11 10 4 1
Route #4: 1 38 33 30 12 14 57 1
Route #5: 1 37 61 49 36 15 60 23 56 5 25 1
Route #6: 1 27 50 44 21 1
Route #7: 1 13 20 16 6 52 29 1
Route #8: 1 17 59 45 46 54 7 58 1
Route #9: 1 26 24 40 64 43 3 1
cost 1045.4395717039704
